# Solution for model r5_t27_m7_3 Batch Number: 3
# Finished Task: 26 / 27
# Makespan: 514.0, Total Distance: 492.0, Total Time: 28.4350
# R O S F Batch
0 0 13 0.0 0.0 -1
1 1 9 0.0 0.0 -1
2 2 16 0.0 0.0 -1
3 3 6 0.0 0.0 -1
4 4 19 0.0 0.0 -1
5 1 14 277.0 297.0 0
6 3 22 310.0 341.0 0
7 1 24 118.0 145.0 0
8 3 20 419.0 458.0 2
9 1 7 45.0 81.0 0
10 2 29 347.0 383.0 0
11 1 -1 469.0 506.0 2
12 0 23 405.0 434.0 1
13 0 28 209.0 232.0 0
14 1 11 297.0 333.0 0
15 2 -1 455.0 481.0 2
16 2 21 98.0 118.0 0
17 0 12 350.0 383.0 0
18 -1 -1 -1.0 -1.0 2
19 4 30 61.0 92.0 0
20 3 -1 458.0 487.0 2
21 2 26 137.0 176.0 0
22 3 8 359.0 383.0 0
23 0 -1 434.0 469.0 2
24 1 5 218.0 253.0 0
25 2 10 283.0 313.0 0
26 2 25 231.0 266.0 0
27 4 -1 478.0 514.0 2
28 0 17 242.0 275.0 0
29 2 15 391.0 425.0 2
30 4 31 102.0 135.0 0
31 4 27 434.0 469.0 1
